28 12 29 76 50 20 66 35 32 70 1 
33 65 71 9 51 81 79 78 34 3 68 26 
21 2 15 41 22 74 58 
83 45 5 61 16 87 57 43 56 4 54 55 25 24 80 77 
72 39 67 23 75 73 40 53 
82 36 47 52 69 30 90 10 48 
95 92 98 59 94 6 
42 14 44 38 86 85 99 96 97 13 
27 31 63 64 11 19 62 88 7 18 84 8 49 46 37 100 91 93 60 17 89 
